&GLOBAL
  BLACS_GRID             SQUARE
  PREFERRED_FFT_LIBRARY  FFTW
  PRINT_LEVEL            LOW
  PROGRAM_NAME           CP2K
  PROJECT_NAME           run
  RUN_TYPE               MD
&END GLOBAL
&MOTION
	&MD
     		ENSEMBLE      sedENSEMBLE
     		STEPS         sedSTEPS
   		TIMESTEP      sedTIMESTEP
     		TEMPERATURE   sedTEMPERATURE
                &THERMOSTAT
                    REGION  GLOBAL
                    &NOSE
                         LENGTH      3
                         YOSHIDA     3
                         TIMECON     1000
                         MTS         2
                    &END NOSE
                &END THERMOSTAT
   	&END MD
  	&PRINT
		&TRAJECTORY  LOW
       			FORMAT  XYZ
       			&EACH
         			MD          sedPRINT
       			&END EACH
     		&END TRAJECTORY
     		&VELOCITIES  LOW
       			FORMAT  XYZ
       			&EACH
         			MD          sedPRINT
       			&END EACH
     		&END VELOCITIES
     		&FORCES  LOW
       			FORMAT  XYZ
       			&EACH
         			MD          sedPRINT
       			&END EACH
     		&END FORCES
                &RESTART_HISTORY OFF
                &END RESTART_HISTORY
   	&END PRINT
INCLUDE CONSTRAINT.tmp
&END MOTION
&FORCE_EVAL
	METHOD  FIST
	&MM
    		&FORCEFIELD
      			&SPLINE
        			RCUT_NB         sedRCUT
       			&END SPLINE
INCLUDE FORCEFIELD.tmp
		&END FORCEFIELD	
		&POISSON
       			&EWALD
         			EWALD_TYPE   NONE
         			#ALPHA        sedALPHA
         			#GMAX         sedGMAX
         			#O_SPLINE     sedOSPLINE
       			&END EWALD
     		&END POISSON
     		&PRINT
      			&ITER_INFO  SILENT
      			&END ITER_INFO
      				&PROGRAM_RUN_INFO LOW
        				&EACH
          					MD 1
        				&END EACH
      				&END PROGRAM_RUN_INFO
     			&END PRINT
   	&END MM
   	&SUBSYS
     		&CELL
       			ABC                    sedLBOXA        sedLBOXB        sedLBOXC     
       			PERIODIC  sedPERIODIC
     		&END CELL
     		&COORD
INCLUDE COORD.tmp
     		&END COORD
		&VELOCITY
INCLUDE VELOC.tmp
		&END VELOCITY
INCLUDE KIND.tmp
                &TOPOLOGY
                        NUMBER_OF_ATOMS                   sedNATOMS
                        CONN_FILE_FORMAT  MOL_SET
                        &MOL_SET
INCLUDE PSF.tmp
                        &END MOL_SET
                        &DUMP_PSF
                                &EACH
                                   MD          1
                                &END EACH
                                FILENAME ./input
                        &END DUMP_PSF
                &END TOPOLOGY
INCLUDE COLVAR.tmp
   	&END SUBSYS
&END FORCE_EVAL
